TIP.Original.Linear/tip2015_nat_acc_plus_same.smt2
(set-logic HORN)
(declare-datatypes ((Nat_287 0)) (((zero_51 ) (succ_50 (p_144 Nat_287)))))
(declare-fun diseqNat_287 (Nat_287 Nat_287) Bool)
(declare-fun p_145 (Nat_287 Nat_287) Bool)
(declare-fun iszero_50 (Nat_287) Bool)
(declare-fun issucc_50 (Nat_287) Bool)
(assert (forall ((x_25415 Nat_287))
	(p_145 x_25415 (succ_50 x_25415))))
(assert (iszero_50 zero_51))
(assert (forall ((x_25417 Nat_287))
	(issucc_50 (succ_50 x_25417))))
(assert (forall ((x_25418 Nat_287))
	(diseqNat_287 zero_51 (succ_50 x_25418))))
(assert (forall ((x_25419 Nat_287))
	(diseqNat_287 (succ_50 x_25419) zero_51)))
(assert (forall ((x_25420 Nat_287) (x_25421 Nat_287))
	(=> (diseqNat_287 x_25420 x_25421)
	    (diseqNat_287 (succ_50 x_25420) (succ_50 x_25421)))))
(declare-fun plus_50 (Nat_287 Nat_287 Nat_287) Bool)
(assert (forall ((x_25398 Nat_287) (z_926 Nat_287) (y_944 Nat_287))
	(=> (plus_50 x_25398 z_926 y_944)
	    (plus_50 (succ_50 x_25398) (succ_50 z_926) y_944))))
(assert (forall ((x_25399 Nat_287))
	(plus_50 x_25399 zero_51 x_25399)))
(declare-fun accplus_3 (Nat_287 Nat_287 Nat_287) Bool)
(assert (forall ((x_25400 Nat_287) (z_927 Nat_287) (y_945 Nat_287))
	(=> (accplus_3 x_25400 z_927 (succ_50 y_945))
	    (accplus_3 x_25400 (succ_50 z_927) y_945))))
(assert (forall ((x_25402 Nat_287))
	(accplus_3 x_25402 zero_51 x_25402)))
(assert (forall ((x_25403 Nat_287) (x_25404 Nat_287) (x_25392 Nat_287) (y_946 Nat_287))
	(=>	(and true
			(diseqNat_287 x_25403 x_25404)
			(plus_50 x_25403 x_25392 y_946)
			(accplus_3 x_25404 x_25392 y_946))
		false)))
(assert (forall ((x_25405 Nat_287) (x_25406 Nat_287) (x_25407 Nat_287) (x_25408 Nat_287) (x_25393 Nat_287) (y_947 Nat_287) (z_928 Nat_287))
	(=>	(and true
			(diseqNat_287 x_25406 x_25408)
			(plus_50 x_25405 y_947 z_928)
			(plus_50 x_25406 x_25393 x_25405)
			(plus_50 x_25407 x_25393 y_947)
			(plus_50 x_25408 x_25407 z_928))
		false)))
(assert (forall ((x_25409 Nat_287) (x_25410 Nat_287) (x_25394 Nat_287) (y_948 Nat_287))
	(=>	(and true
			(diseqNat_287 x_25409 x_25410)
			(plus_50 x_25409 x_25394 y_948)
			(plus_50 x_25410 y_948 x_25394))
		false)))
(assert (forall ((x_25411 Nat_287) (x_25395 Nat_287))
	(=>	(and true
			(diseqNat_287 x_25411 x_25395)
			(plus_50 x_25411 x_25395 zero_51))
		false)))
(assert (forall ((x_25412 Nat_287) (x_25396 Nat_287))
	(=>	(and true
			(diseqNat_287 x_25412 x_25396)
			(plus_50 x_25412 zero_51 x_25396))
		false)))
(check-sat)
